c Lingeling SAT Solver
c 
c Version azf 92032848c138b2f33629ad24394d60a3787a1046
c 
c Copyright (C) 2010-2014 Armin Biere JKU Linz Austria.
c All rights reserved.
c 
c released Don Mai 22 22:08:00 CEST 2014
c compiled Mon Oct  6 05:55:43 PDT 2014
c 
c gcc (Ubuntu 4.8.2-19ubuntu1) 4.8.2
c -Wall -O3 -DNDBLSCR -DNLGLOG -DNDEBUG -DNCHKSOL -DNLGLPICOSAT -DNLGLDRUPLIG
c -DNLGLYALSAT
c Linux ubuntu 3.13.0-32-generic x86_64
c 
c reading input file benchmark-sat/translations/gc-queen8_8-8.cnf
c no embedded options
c found 'p cnf 512 13504' header
c read 512 variables, 13504 clauses, 27392 literals in 0.00 seconds
c 
c  seconds         irredundant          redundant clauses agility   height
c          variables clauses conflicts large ternary binary    glue         MB
c 
c S    0.0     512    13504         0       0      0     0   0  0.0   0.0    0
c S    1.0     448     5824     23416    2934      0  1344  16 26.5  41.1    2
c S    2.0     448     5824     48909    3331      0  1344  17 27.4  43.7    2
c S    5.0     448     5824    121214   10194      0  1344  17 24.0  38.6    5
c S   10.0     448     5824    266802    6858      0  1344  15 18.3  28.9    5
c S   20.1     448     5824    450370   23453      0  1344  16 19.8  31.9    8
c S   30.0     448     5824    652118    3380      0  1344  16 19.7  33.4    2
c S   40.0     448     5824    883145   15918      0  1344  15 20.1  33.1    8
c S   50.0     448     5824   1057634    7978      0  1344  16 20.5  33.2    4
c S   60.0     448     5824   1228705   21763      0  1344  16 20.9  33.1    9
c S  120.1     448     5824   2025851   45439      0  1344  15 22.0  33.7   19
c S  180.0     448     5824   3096901    8689      0  1344  16 22.9  34.8    3
c S  240.0     448     5824   4009077   31000      0  1344  17 23.6  35.9    8
c S  300.0     448     5824   4634018   55165      0  1344  17 24.0  36.3   14
c S  600.0     448     5824   7369205   57606      0  1344  16 25.3  37.0   16
c S  900.1     448     5824   9243863  114616      0  1344  17 25.5  36.5   34
